
;this file is automatically generated: Wed Feb 26 14:38:42 CST 2020

;declarations generated

(declare-fun oclExcludes ( Int Int) Bool)
(declare-fun Cardinality ( Int) Int)
(declare-fun class4_Class4IntAttr3 ( Int) Int)
(declare-fun oclSelect ( Int Bool) Int)
(declare-fun class4_Class4BoolAttr0 ( Int) Bool)
(declare-fun class4_Class4BoolAttr1 ( Int) Bool)
(declare-fun Enum0 ( Int) Int)
(declare-fun Enum1 ( Int) Int)
(declare-fun container_ ( Int) Int)
(declare-fun obj_388f481f_5e77_4875_97d1_18fc0b9cb40c ( Int) Int)
(declare-fun type_714f2baf_c246_4824_9457_4a962ff26940_Class4 ( Int) Bool)
(declare-fun oclIncludes ( Int Int) Bool)
(declare-fun ObjAt ( Int Int) Int)

;formula(s) generated
(assert (! (forall ((v Int)) (=> ( type_714f2baf_c246_4824_9457_4a962ff26940_Class4 v )  ( class4_Class4BoolAttr1 ( obj_388f481f_5e77_4875_97d1_18fc0b9cb40c v )  ) )):named l0))
(assert (! (forall ((v Int)) (=> ( type_714f2baf_c246_4824_9457_4a962ff26940_Class4 v )  (and ( class4_Class4BoolAttr1 ( obj_388f481f_5e77_4875_97d1_18fc0b9cb40c v )  )  (and (forall ((v Int)) (=> ( type_714f2baf_c246_4824_9457_4a962ff26940_Class4 v )  (>= ( class4_Class4IntAttr3 ( obj_388f481f_5e77_4875_97d1_18fc0b9cb40c v )  )  3))) (forall ((v Int)) (=> ( type_714f2baf_c246_4824_9457_4a962ff26940_Class4 v )  ( class4_Class4BoolAttr0 ( obj_388f481f_5e77_4875_97d1_18fc0b9cb40c v )  ) )))))):named l1))
(assert (! (forall ((v Int)) (=> ( type_714f2baf_c246_4824_9457_4a962ff26940_Class4 v )  (not ( class4_Class4BoolAttr1 ( obj_388f481f_5e77_4875_97d1_18fc0b9cb40c v )  )  ))):named l2))
(assert (exists ((o Int)) ( type_714f2baf_c246_4824_9457_4a962ff26940_Class4 ( obj_388f481f_5e77_4875_97d1_18fc0b9cb40c o )  ) ))

 ;end of formula 